c Cardinality constraint <=k(x_1,...,x_n) for k = 3 and n = 7.
c Adders are encoded using implications.
c The numbers of clauses and variables on the next line are just upper bounds!
p cnf 19 36
1 2 -3 8 0
1 -2 3 8 0
-1 2 3 8 0
-1 -2 -3 8 0
-1 -2 9 0
-1 -3 9 0
-2 -3 9 0
4 5 -6 10 0
4 -5 6 10 0
-4 5 6 10 0
-4 -5 -6 10 0
-4 -5 11 0
-4 -6 11 0
-5 -6 11 0
8 10 -7 12 0
8 -10 7 12 0
-8 10 7 12 0
-8 -10 -7 12 0
-8 -10 13 0
-8 -7 13 0
-10 -7 13 0
9 11 -13 14 0
9 -11 13 14 0
-9 11 13 14 0
-9 -11 -13 14 0
-9 -11 15 0
-9 -13 15 0
-11 -13 15 0
-15 0
